WARNING: for repeatability, setting FPU to use double precision
============================[ Problem Statistics ]=============================
|                                                                             |
|  Number of variables:            50                                         |
|  Number of clauses:             218                                         |
|  Parse time:                   0.00 s                                       |
|                                                                             |
============================[ Search Statistics ]==============================
| Conflicts |          ORIGINAL         |          LEARNT          | Progress |
|           |    Vars  Clauses Literals |    Limit  Clauses Lit/Cl |          |
===============================================================================
===============================================================================
restarts              : 1
conflicts             : 83             (54248 /sec)
decisions             : 101            (0.00 % random) (66013 /sec)
propagations          : 1158           (756863 /sec)
conflict literals     : 341            (18.23 % deleted)
Memory used           : 20.00 MB
CPU time              : 0.00153 s

UNSATISFIABLE
